src/asp/benchmarks/large1.lp
citta(terni).
citta(castiglione_del_lago).
citta(citta_di_castello).
citta(spoleto).
citta(san_giustino).
citta(magione).
citta(umbertide).
citta(perugia).
citta(marsciano).
citta(foligno).
citta(todi).
citta(corciano).
citta(amelia).
citta(narni).
citta(assisi).
citta(gubbio).
citta(gualdo_tardino).
citta(bastia_umbra).
citta(orvieto).

richiesta(terni, strade, 187).
richiesta(terni, fiumi, 115).
richiesta(terni, scuole, 20).
richiesta(terni, parchi, 230).
richiesta(terni, energia, 7).

richiesta(castiglione_del_lago, strade, 1).
richiesta(castiglione_del_lago, fiumi, 69).
richiesta(castiglione_del_lago, scuole, 225).
richiesta(castiglione_del_lago, parchi, 187).
richiesta(castiglione_del_lago, energia, 56).

richiesta(citta_di_castello, strade, 65).
richiesta(citta_di_castello, fiumi, 261).
richiesta(citta_di_castello, scuole, 177).
richiesta(citta_di_castello, parchi, 267).
richiesta(citta_di_castello, energia, 33).

richiesta(spoleto, strade, 96).
richiesta(spoleto, fiumi, 187).
richiesta(spoleto, scuole, 38).
richiesta(spoleto, parchi, 36).
richiesta(spoleto, energia, 75).

richiesta(san_giustino, strade, 122).
richiesta(san_giustino, fiumi, 94).
richiesta(san_giustino, scuole, 5).
richiesta(san_giustino, parchi, 43).
richiesta(san_giustino, energia, 74).

richiesta(magione, strade, 66).
richiesta(magione, fiumi, 74).
richiesta(magione, scuole, 71).
richiesta(magione, parchi, 55).
richiesta(magione, energia, 81).

richiesta(umbertide, strade, 27).
richiesta(umbertide, fiumi, 142).
richiesta(umbertide, scuole, 68).
richiesta(umbertide, parchi, 161).
richiesta(umbertide, energia, 119).

richiesta(perugia, strade, 13).
richiesta(perugia, fiumi, 283).
richiesta(perugia, scuole, 133).
richiesta(perugia, parchi, 171).
richiesta(perugia, energia, 8).

richiesta(marsciano, strade, 68).
richiesta(marsciano, fiumi, 26).
richiesta(marsciano, scuole, 40).
richiesta(marsciano, parchi, 53).
richiesta(marsciano, energia, 41).

richiesta(foligno, strade, 291).
richiesta(foligno, fiumi, 65).
richiesta(foligno, scuole, 68).
richiesta(foligno, parchi, 31).
richiesta(foligno, energia, 79).

richiesta(todi, strade, 1).
richiesta(todi, fiumi, 21).
richiesta(todi, scuole, 83).
richiesta(todi, parchi, 38).
richiesta(todi, energia, 19).

richiesta(corciano, strade, 8).
richiesta(corciano, fiumi, 127).
richiesta(corciano, scuole, 210).
richiesta(corciano, parchi, 64).
richiesta(corciano, energia, 22).

richiesta(amelia, strade, 89).
richiesta(amelia, fiumi, 45).
richiesta(amelia, scuole, 99).
richiesta(amelia, parchi, 303).
richiesta(amelia, energia, 109).

richiesta(narni, strade, 54).
richiesta(narni, fiumi, 23).
richiesta(narni, scuole, 178).
richiesta(narni, parchi, 84).
richiesta(narni, energia, 105).

richiesta(assisi, strade, 152).
richiesta(assisi, fiumi, 258).
richiesta(assisi, scuole, 319).
richiesta(assisi, parchi, 292).
richiesta(assisi, energia, 152).

richiesta(gubbio, strade, 16).
richiesta(gubbio, fiumi, 82).
richiesta(gubbio, scuole, 240).
richiesta(gubbio, parchi, 167).
richiesta(gubbio, energia, 27).

richiesta(gualdo_tardino, strade, 18).
richiesta(gualdo_tardino, fiumi, 343).
richiesta(gualdo_tardino, scuole, 220).
richiesta(gualdo_tardino, parchi, 15).
richiesta(gualdo_tardino, energia, 90).

richiesta(bastia_umbra, strade, 149).
richiesta(bastia_umbra, fiumi, 33).
richiesta(bastia_umbra, scuole, 220).
richiesta(bastia_umbra, parchi, 72).
richiesta(bastia_umbra, energia, 24).

richiesta(orvieto, strade, 1).
richiesta(orvieto, fiumi, 32).
richiesta(orvieto, scuole, 243).
richiesta(orvieto, parchi, 87).
richiesta(orvieto, energia, 116).

