src/minizinc/benchmarks/large1.dzn
COMUNI = {
	perugia,
	gubbio,
	bastia_umbra,
	san_giustino,
	spoleto,
	amelia,
	todi,
	marsciano,
	narni,
	citta_di_castello,
	terni,
	gualdo_tardino,
	magione,
	foligno,
	orvieto,
	castiglione_del_lago,
	umbertide,
	corciano,
	assisi,
};

NUMERO_COMUNI = 19;

ABITANTI_PER_COMUNE = [161, 30, 21, 11, 36, 11, 15, 18, 17, 38, 106, 14, 14, 55, 19, 15, 16, 21, 27];

STRADE_TRA_COMUNI = [|
	false, false, true, false, false, false, false, true, false, false, false, false, false, false, false, false, true, true, false |
	false, false, false, false, false, false, false, false, false, false, false, true, false, false, false, false, true, false, false |
	true, false, false, false, false, false, false, false, false, false, false, false, false, false, false, false, false, false, true |
	false, false, false, false, false, false, false, false, false, true, false, false, false, false, false, false, false, false, false |
	false, false, false, false, false, false, false, false, false, false, true, false, false, false, false, false, false, false, false |
	false, false, false, false, false, false, true, false, true, false, false, false, false, false, false, false, false, false, false |
	false, false, false, false, false, true, false, true, false, false, false, false, false, false, true, false, false, false, false |
	true, false, false, false, false, false, true, false, false, false, false, false, false, false, false, false, false, false, false |
	false, false, false, false, false, true, false, false, false, false, true, false, false, false, false, false, false, false, false |
	false, false, false, true, false, false, false, false, false, false, false, false, false, false, false, false, true, false, false |
	false, false, false, false, true, false, false, false, true, false, false, false, false, false, false, false, false, false, false |
	false, true, false, false, false, false, false, false, false, false, false, false, false, false, false, false, false, false, false |
	false, false, false, false, false, false, false, false, false, false, false, false, false, false, false, true, false, true, false |
	false, false, false, false, false, false, false, false, false, false, false, false, false, false, false, false, false, false, true |
	false, false, false, false, false, false, true, false, false, false, false, false, false, false, false, false, false, false, false |
	false, false, false, false, false, false, false, false, false, false, false, false, true, false, false, false, false, false, false |
	true, true, false, false, false, false, false, false, false, true, false, false, false, false, false, false, false, false, false |
	true, false, false, false, false, false, false, false, false, false, false, false, true, false, false, false, false, false, false |
	false, false, true, false, false, false, false, false, false, false, false, false, false, true, false, false, false, false, false |
|];

RICHIESTE = [|
	446, 246, 402, 162, 52 |
	3, 34, 80, 102, 63 |
	103, 71, 247, 27, 25 |
	18, 240, 205, 8, 102 |
	20, 59, 248, 12, 93 |
	169, 80, 86, 59, 26 |
	354, 49, 25, 35, 37 |
	60, 128, 283, 109, 103 |
	311, 143, 46, 9, 9 |
	34, 100, 115, 85, 60 |
	72, 57, 98, 81, 42 |
	26, 119, 82, 10, 47 |
	21, 312, 135, 101, 138 |
	21, 136, 107, 53, 151 |
	14, 221, 214, 392, 209 |
	114, 251, 94, 41, 28 |
	3, 104, 2, 113, 216 |
	81, 28, 74, 12, 34 |
	66, 46, 127, 54, 17 |
|];
